\ This file has been generated by DOcplex
\ ENCODING=ISO-8859-1
\Problem name: MaximumIndependentSet

Minimize
 obj: - x_0 - x_1 - x_2 - x_3 - x_4 - x_5 - x_6 - x_7 - x_8 - x_9 - x_10 - x_11
      - x_12 - x_13 - x_14 - x_15 - x_16 - x_17 - x_18 - x_19 - x_20 - x_21
      - x_22 - x_23 - x_24 - x_25 - x_26 - x_27 - x_28 - x_29 - x_30 - x_31
      - x_32 - x_33 - x_34 - x_35 - x_36 - x_37 - x_38 - x_39 - x_40 - x_41
      - x_42 - x_43 - x_44 - x_45 - x_46 - x_47 - x_48 - x_49 - x_50 - x_51
      - x_52 - x_53 - x_54 - x_55 - x_56 - x_57 - x_58 - x_59 - x_60 - x_61
      - x_62 - x_63 + [ 130 x_1*x_2 + 130 x_1*x_4 + 130 x_2*x_4 + 130 x_2*x_8
      + 130 x_3*x_5 + 130 x_3*x_6 + 130 x_3*x_9 + 130 x_4*x_8 + 130 x_4*x_16
      + 130 x_5*x_6 + 130 x_5*x_9 + 130 x_5*x_10 + 130 x_5*x_17 + 130 x_6*x_9
      + 130 x_6*x_10 + 130 x_6*x_12 + 130 x_6*x_18 + 130 x_7*x_11 + 130 x_7*x_13
      + 130 x_7*x_19 + 130 x_8*x_16 + 130 x_8*x_32 + 130 x_9*x_10 + 130 x_9*x_12
      + 130 x_9*x_17 + 130 x_9*x_18 + 130 x_9*x_33 + 130 x_10*x_12
      + 130 x_10*x_17 + 130 x_10*x_18 + 130 x_10*x_20 + 130 x_10*x_34
      + 130 x_11*x_13 + 130 x_11*x_14 + 130 x_11*x_19 + 130 x_11*x_21
      + 130 x_11*x_35 + 130 x_12*x_18 + 130 x_12*x_20 + 130 x_12*x_24
      + 130 x_12*x_36 + 130 x_13*x_14 + 130 x_13*x_19 + 130 x_13*x_21
      + 130 x_13*x_22 + 130 x_13*x_25 + 130 x_13*x_37 + 130 x_14*x_21
      + 130 x_14*x_22 + 130 x_14*x_26 + 130 x_14*x_38 + 130 x_15*x_23
      + 130 x_15*x_27 + 130 x_15*x_39 + 130 x_16*x_32 + 130 x_17*x_18
      + 130 x_17*x_20 + 130 x_17*x_33 + 130 x_17*x_34 + 130 x_18*x_20
      + 130 x_18*x_24 + 130 x_18*x_33 + 130 x_18*x_34 + 130 x_18*x_36
      + 130 x_19*x_21 + 130 x_19*x_22 + 130 x_19*x_25 + 130 x_19*x_35
      + 130 x_19*x_37 + 130 x_20*x_24 + 130 x_20*x_34 + 130 x_20*x_36
      + 130 x_20*x_40 + 130 x_21*x_22 + 130 x_21*x_25 + 130 x_21*x_26
      + 130 x_21*x_35 + 130 x_21*x_37 + 130 x_21*x_38 + 130 x_21*x_41
      + 130 x_22*x_25 + 130 x_22*x_26 + 130 x_22*x_28 + 130 x_22*x_37
      + 130 x_22*x_38 + 130 x_22*x_42 + 130 x_23*x_27 + 130 x_23*x_29
      + 130 x_23*x_39 + 130 x_23*x_43 + 130 x_24*x_36 + 130 x_24*x_40
      + 130 x_24*x_48 + 130 x_25*x_26 + 130 x_25*x_28 + 130 x_25*x_37
      + 130 x_25*x_41 + 130 x_25*x_42 + 130 x_25*x_49 + 130 x_26*x_28
      + 130 x_26*x_38 + 130 x_26*x_41 + 130 x_26*x_42 + 130 x_26*x_44
      + 130 x_26*x_50 + 130 x_27*x_29 + 130 x_27*x_30 + 130 x_27*x_39
      + 130 x_27*x_43 + 130 x_27*x_45 + 130 x_27*x_51 + 130 x_28*x_42
      + 130 x_28*x_44 + 130 x_28*x_52 + 130 x_29*x_30 + 130 x_29*x_43
      + 130 x_29*x_45 + 130 x_29*x_46 + 130 x_29*x_53 + 130 x_30*x_45
      + 130 x_30*x_46 + 130 x_30*x_54 + 130 x_31*x_47 + 130 x_31*x_55
      + 130 x_33*x_34 + 130 x_33*x_36 + 130 x_34*x_36 + 130 x_34*x_40
      + 130 x_35*x_37 + 130 x_35*x_38 + 130 x_35*x_41 + 130 x_36*x_40
      + 130 x_36*x_48 + 130 x_37*x_38 + 130 x_37*x_41 + 130 x_37*x_42
      + 130 x_37*x_49 + 130 x_38*x_41 + 130 x_38*x_42 + 130 x_38*x_44
      + 130 x_38*x_50 + 130 x_39*x_43 + 130 x_39*x_45 + 130 x_39*x_51
      + 130 x_40*x_48 + 130 x_41*x_42 + 130 x_41*x_44 + 130 x_41*x_49
      + 130 x_41*x_50 + 130 x_42*x_44 + 130 x_42*x_49 + 130 x_42*x_50
      + 130 x_42*x_52 + 130 x_43*x_45 + 130 x_43*x_46 + 130 x_43*x_51
      + 130 x_43*x_53 + 130 x_44*x_50 + 130 x_44*x_52 + 130 x_44*x_56
      + 130 x_45*x_46 + 130 x_45*x_51 + 130 x_45*x_53 + 130 x_45*x_54
      + 130 x_45*x_57 + 130 x_46*x_53 + 130 x_46*x_54 + 130 x_46*x_58
      + 130 x_47*x_55 + 130 x_47*x_59 + 130 x_49*x_50 + 130 x_49*x_52
      + 130 x_50*x_52 + 130 x_50*x_56 + 130 x_51*x_53 + 130 x_51*x_54
      + 130 x_51*x_57 + 130 x_52*x_56 + 130 x_53*x_54 + 130 x_53*x_57
      + 130 x_53*x_58 + 130 x_54*x_57 + 130 x_54*x_58 + 130 x_54*x_60
      + 130 x_55*x_59 + 130 x_55*x_61 + 130 x_57*x_58 + 130 x_57*x_60
      + 130 x_58*x_60 + 130 x_59*x_61 + 130 x_59*x_62 + 130 x_61*x_62 ]/2
Subject To

Bounds
 0 <= x_0 <= 1
 0 <= x_1 <= 1
 0 <= x_2 <= 1
 0 <= x_3 <= 1
 0 <= x_4 <= 1
 0 <= x_5 <= 1
 0 <= x_6 <= 1
 0 <= x_7 <= 1
 0 <= x_8 <= 1
 0 <= x_9 <= 1
 0 <= x_10 <= 1
 0 <= x_11 <= 1
 0 <= x_12 <= 1
 0 <= x_13 <= 1
 0 <= x_14 <= 1
 0 <= x_15 <= 1
 0 <= x_16 <= 1
 0 <= x_17 <= 1
 0 <= x_18 <= 1
 0 <= x_19 <= 1
 0 <= x_20 <= 1
 0 <= x_21 <= 1
 0 <= x_22 <= 1
 0 <= x_23 <= 1
 0 <= x_24 <= 1
 0 <= x_25 <= 1
 0 <= x_26 <= 1
 0 <= x_27 <= 1
 0 <= x_28 <= 1
 0 <= x_29 <= 1
 0 <= x_30 <= 1
 0 <= x_31 <= 1
 0 <= x_32 <= 1
 0 <= x_33 <= 1
 0 <= x_34 <= 1
 0 <= x_35 <= 1
 0 <= x_36 <= 1
 0 <= x_37 <= 1
 0 <= x_38 <= 1
 0 <= x_39 <= 1
 0 <= x_40 <= 1
 0 <= x_41 <= 1
 0 <= x_42 <= 1
 0 <= x_43 <= 1
 0 <= x_44 <= 1
 0 <= x_45 <= 1
 0 <= x_46 <= 1
 0 <= x_47 <= 1
 0 <= x_48 <= 1
 0 <= x_49 <= 1
 0 <= x_50 <= 1
 0 <= x_51 <= 1
 0 <= x_52 <= 1
 0 <= x_53 <= 1
 0 <= x_54 <= 1
 0 <= x_55 <= 1
 0 <= x_56 <= 1
 0 <= x_57 <= 1
 0 <= x_58 <= 1
 0 <= x_59 <= 1
 0 <= x_60 <= 1
 0 <= x_61 <= 1
 0 <= x_62 <= 1
 0 <= x_63 <= 1

Binaries
 x_0 x_1 x_2 x_3 x_4 x_5 x_6 x_7 x_8 x_9 x_10 x_11 x_12 x_13 x_14 x_15 x_16 x_17
 x_18 x_19 x_20 x_21 x_22 x_23 x_24 x_25 x_26 x_27 x_28 x_29 x_30 x_31 x_32 x_33
 x_34 x_35 x_36 x_37 x_38 x_39 x_40 x_41 x_42 x_43 x_44 x_45 x_46 x_47 x_48 x_49
 x_50 x_51 x_52 x_53 x_54 x_55 x_56 x_57 x_58 x_59 x_60 x_61 x_62 x_63
End
